80 9438746
66 69 24 9 29 25 40 77 13 36 3 59 27 35 33 30 41 53 37 71 75 1 11 18 2 20 61 15 47 8 23 22 57 19 44 51 48 49 16 17 73 56 76 10 52 64 39 43 5 7 12 38 63 14 78 74 50 32 28 79 68 70 55 65 60 54 80 6 31 45 4 42 34 62 21 58 26 46 72 67 
